NAME : XML100_3375_21
DIMENSION : 101
NB_CLUSTERS : 5
CLUSTERING_ALG : KMeans
CLUSTERING_PARAMS : k(4)
CLUSTERS
1 0
2 4 7 12 13 16 22 24 25 32 35 39 41 43 44 46 56 60 62 63 66 67 69 70 77 80 83 86 95
3 8 14 18 19 23 34 40 45 48 52 58 59 61 71 72 74 79 82 87 93
4 1 2 3 5 6 9 10 11 15 21 27 28 30 31 33 37 38 42 47 49 50 51 53 54 55 57 64 65 68 73 76 81 84 85 88 89 91 96 99 100
5 17 20 26 29 36 75 78 90 92 94 97 98
EOF